(set-info :smt-lib-version 2.6)
(set-logic LRA)
(set-info :source |
   Monniaux, David; Quantifier Elimination by Lazy Model Enumeration, CAV 2010
|)
(set-info :category "random")
; ./Mjollnir_examples/B4/formula_130.m
(set-info :status unsat)
(assert
 (exists ((|v11:0| Real) )(exists ((|v10:1| Real) )(exists ((|v9:2| Real) )(exists ((|v8:3| Real) )(forall ((|v7:4| Real) )(forall ((|v6:5| Real) )(forall ((|v5:6| Real) )(forall ((|v4:7| Real) )(exists ((|v3:8| Real) )(exists ((|v2:9| Real) )(exists ((|v1:10| Real) )(exists ((|v0:11| Real) )(let ((?x148 (- 8)))
(let ((?x609 (+ (+ (* (- 11) |v10:1|) (* (- 9) |v10:1|)) (* 4 |v10:1|))))
(let ((?x49 (- 9)))
(let ((?x75 10))
(let ((?x536 (* ?x75 |v4:7|)))
(let ((?x602 (+ (+ (* 6 |v7:4|) (* 9 |v7:4|)) (* (- 11) |v4:7|))))
(let (($x613 (and (<= (+ ?x602 ?x536) ?x49) (<= (+ ?x609 (* 12 |v5:6|)) ?x148))))
(let ((?x224 0))
(let ((?x189 (- 1)))
(let ((?x190 (* ?x189 |v8:3|)))
(let ((?x596 (+ (+ (+ (* (- 3) |v1:10|) (* (- 12) |v6:5|)) ?x190) (* 16 |v3:8|))))
(let ((?x237 17))
(let ((?x24 (- 17)))
(let ((?x330 (* ?x24 |v1:10|)))
(let ((?x589 (+ (+ (* (- 18) |v7:4|) (* 3 |v8:3|)) (* (- 2) |v3:8|))))
(let ((?x108 11))
(let ((?x59 (- 15)))
(let ((?x409 (* ?x59 |v11:0|)))
(let ((?x580 (+ (+ (* (- 10) |v4:7|) (* (- 4) |v1:10|)) (* (- 6) |v8:3|))))
(let ((?x35 7))
(let ((?x575 (+ (+ (+ (* ?x189 |v10:1|) (* (- 11) |v6:5|)) |v7:4|) (* ?x237 |v2:9|))))
(let ((?x101 19))
(let ((?x31 (- 16)))
(let ((?x282 (* ?x31 |v7:4|)))
(let ((?x566 (+ (+ (* (- 3) |v1:10|) (* 16 |v7:4|)) (* ?x59 |v8:3|))))
(let ((?x161 3))
(let ((?x558 (+ (+ (* (- 7) |v6:5|) (* 12 |v6:5|)) (* ?x31 |v5:6|))))
(let (($x584 (or (and (<= (+ ?x558 (* ?x35 |v0:11|)) ?x161) (<= (+ ?x566 ?x282) ?x101)) (and (<= ?x575 ?x35) (<= (+ ?x580 ?x409) ?x108)))))
(let ((?x258 15))
(let ((?x307 (* ?x224 |v9:2|)))
(let ((?x371 (- 11)))
(let ((?x372 (* ?x371 |v3:8|)))
(let (($x550 (<= (+ (+ (+ (* 6 |v0:11|) (* ?x161 |v10:1|)) ?x372) ?x307) ?x258)))
(let ((?x104 6))
(let ((?x452 (* ?x161 |v10:1|)))
(let ((?x36 (* ?x35 |v7:4|)))
(let ((?x544 (+ (+ (+ (* (- 4) |v10:1|) (* (- 19) |v0:11|)) ?x36) ?x452)))
(let ((?x535 (+ (+ (* (- 4) |v1:10|) (* (- 14) |v0:11|)) (* 14 |v10:1|))))
(let ((?x528 (+ (+ (* 18 |v7:4|) (* 14 |v5:6|)) (* 2 |v7:4|))))
(let (($x552 (and (and (<= (+ ?x528 (* ?x224 |v2:9|)) ?x189) (<= (+ ?x535 ?x536) ?x104)) (and (<= ?x544 ?x104) $x550))))
(let ((?x520 (+ (+ (+ (* (- 20) |v6:5|) (* ?x237 |v6:5|)) (* ?x189 |v11:0|)) (* (- 18) |v0:11|))))
(let ((?x178 (- 19)))
(let ((?x448 (* ?x237 |v5:6|)))
(let ((?x514 (+ (+ (+ (* (- 7) |v5:6|) (* (- 3) |v10:1|)) ?x448) (* ?x189 |v3:8|))))
(let ((?x95 18))
(let ((?x156 (* ?x148 |v3:8|)))
(let (($x505 (<= (+ (+ (+ |v10:1| (* (- 2) |v11:0|)) (* ?x189 |v5:6|)) ?x156) ?x95)))
(let ((?x14 (- 2)))
(let ((?x497 (+ (+ (* 12 |v7:4|) (* 16 |v4:7|)) (* (- 20) |v11:0|))))
(let (($x523 (and (and (<= (+ ?x497 (* ?x95 |v2:9|)) ?x14) $x505) (and (<= ?x514 ?x178) (<= ?x520 ?x371)))))
(let (($x616 (or (and $x523 $x552) (and $x584 (and (and (<= (+ ?x589 ?x330) ?x237) (<= ?x596 ?x224)) $x613)))))
(let ((?x70 (- 4)))
(let ((?x487 (+ (+ (+ (* 13 |v6:5|) (* ?x31 |v0:11|)) (* ?x148 |v10:1|)) (* ?x237 |v4:7|))))
(let ((?x350 (* ?x24 |v0:11|)))
(let ((?x480 (+ (+ (+ (* 16 |v8:3|) (* ?x178 |v6:5|)) (* ?x224 |v6:5|)) ?x350)))
(let ((?x151 (- 6)))
(let ((?x152 (* ?x151 |v4:7|)))
(let ((?x472 (+ (+ (* ?x371 |v9:2|) (* 5 |v6:5|)) (* (- 3) |v0:11|))))
(let ((?x39 16))
(let ((?x465 (+ (+ (* 12 |v3:8|) (* 2 |v9:2|)) (* ?x35 |v8:3|))))
(let (($x490 (and (and (<= (+ ?x465 (* ?x24 |v9:2|)) ?x39) (<= (+ ?x472 ?x152) ?x258)) (and (<= ?x480 ?x148) (<= ?x487 ?x70)))))
(let ((?x214 1))
(let (($x458 (<= (+ (+ (+ ?x452 (* ?x59 |v7:4|)) (* ?x237 |v1:10|)) (* ?x148 |v11:0|)) ?x214)))
(let ((?x78 (- 18)))
(let (($x451 (<= (+ (+ (+ (* ?x104 |v10:1|) (* 12 |v8:3|)) ?x448) |v7:4|) ?x78)))
(let ((?x117 9))
(let ((?x443 (+ (+ (+ (* ?x24 |v10:1|) (* ?x35 |v2:9|)) (* ?x31 |v11:0|)) (* ?x148 |v8:3|))))
(let ((?x437 (+ (+ (+ (* 13 |v2:9|) (* ?x39 |v0:11|)) (* ?x104 |v7:4|)) (* ?x78 |v8:3|))))
(let (($x491 (and (and (and (<= ?x437 ?x214) (<= ?x443 ?x117)) (and $x451 $x458)) $x490)))
(let ((?x141 4))
(let ((?x283 (* ?x141 |v7:4|)))
(let ((?x427 (+ (+ (+ (* 2 |v0:11|) (* ?x161 |v3:8|)) ?x283) (* ?x237 |v10:1|))))
(let ((?x420 (+ (+ (+ (* ?x14 |v7:4|) (* ?x237 |v6:5|)) (* 20 |v1:10|)) (* (- 13) |v7:4|))))
(let ((?x10 (- 14)))
(let (($x413 (<= (+ (+ (+ (* ?x14 |v0:11|) (* ?x24 |v8:3|)) ?x409) (* ?x70 |v1:10|)) ?x10)))
(let ((?x405 (+ (+ (+ (* ?x151 |v9:2|) (* ?x108 |v6:5|)) (* ?x237 |v9:2|)) (* (- 12) |v11:0|))))
(let ((?x396 (+ (+ (+ (* ?x224 |v10:1|) (* ?x95 |v0:11|)) (* 8 |v3:8|)) (* 20 |v2:9|))))
(let ((?x120 20))
(let ((?x388 (+ (+ (+ (* 2 |v5:6|) (* ?x75 |v6:5|)) (* ?x104 |v7:4|)) (* ?x371 |v8:3|))))
(let ((?x168 14))
(let ((?x315 (* ?x168 |v1:10|)))
(let ((?x380 (+ (+ (+ (* ?x49 |v9:2|) (* ?x189 |v11:0|)) (* (- 12) |v1:10|)) ?x315)))
(let ((?x85 (- 3)))
(let (($x374 (<= (+ (+ (+ (* ?x70 |v5:6|) (* ?x148 |v2:9|)) (* ?x59 |v7:4|)) ?x372) ?x85)))
(let (($x431 (and (and (and $x374 (<= ?x380 ?x24)) (and (<= ?x388 ?x120) (<= ?x396 ?x24))) (and (and (<= ?x405 ?x151) $x413) (and (<= ?x420 ?x141) (<= ?x427 ?x104))))))
(let ((?x359 (+ (+ (+ (* ?x70 |v4:7|) (* ?x101 |v4:7|)) (* ?x31 |v11:0|)) (* 13 |v1:10|))))
(let ((?x52 12))
(let ((?x351 (+ (+ (+ (* (- 20) |v1:10|) (* ?x101 |v6:5|)) (* ?x148 |v5:6|)) ?x350)))
(let ((?x174 (- 20)))
(let (($x343 (<= (+ (+ (+ (* ?x39 |v11:0|) |v8:3|) (* ?x39 |v8:3|)) (* ?x258 |v4:7|)) ?x174)))
(let (($x336 (<= (+ (+ (+ (* ?x189 |v6:5|) ?x330) (* ?x52 |v2:9|)) (* ?x101 |v10:1|)) ?x108)))
(let ((?x324 (* ?x70 |v5:6|)))
(let ((?x43 13))
(let ((?x129 (* ?x43 |v11:0|)))
(let (($x326 (<= (+ (+ (+ (* (- 12) |v3:8|) (* ?x108 |v6:5|)) ?x129) ?x324) ?x35)))
(let ((?x320 (+ (+ (+ ?x315 (* (- 12) |v3:8|)) (* ?x10 |v2:9|)) (* ?x224 |v1:10|))))
(let ((?x312 (+ (+ (+ ?x307 (* 5 |v3:8|)) (* ?x258 |v11:0|)) (* ?x104 |v6:5|))))
(let ((?x182 (- 13)))
(let ((?x203 (* ?x182 |v8:3|)))
(let ((?x305 (+ (+ (+ (* ?x10 |v10:1|) (* ?x178 |v9:2|)) (* 2 |v1:10|)) ?x203)))
(let (($x363 (and (and (and (<= ?x305 ?x148) (<= ?x312 ?x258)) (and (<= ?x320 ?x148) $x326)) (and (or $x336 $x343) (and (<= ?x351 ?x52) (<= ?x359 ?x95))))))
(let ((?x294 (* ?x35 |v2:9|)))
(let (($x296 (<= (+ (+ (+ (* ?x117 |v3:8|) (* ?x35 |v5:6|)) (* ?x141 |v11:0|)) ?x294) ?x43)))
(let (($x297 (and (<= (+ (+ (+ ?x282 ?x283) (* ?x14 |v6:5|)) (* ?x14 |v11:0|)) ?x151) $x296)))
(let ((?x279 (+ (+ (+ (* ?x95 |v6:5|) (* ?x258 |v2:9|)) (* ?x151 |v7:4|)) (* ?x117 |v11:0|))))
(let ((?x121 (* ?x120 |v7:4|)))
(let ((?x271 (+ (+ (+ (* 8 |v6:5|) (* ?x168 |v6:5|)) (* ?x104 |v8:3|)) ?x121)))
(let ((?x133 (* ?x101 |v3:8|)))
(let (($x264 (<= (+ (+ (+ (* ?x108 |v11:0|) (* ?x258 |v9:2|)) (* ?x108 |v3:8|)) ?x133) ?x10)))
(let ((?x254 (* ?x120 |v1:10|)))
(let ((?x255 (+ (+ (+ (* ?x49 |v1:10|) (* (- 12) |v10:1|)) (* ?x10 |v5:6|)) ?x254)))
(let ((?x67 (* ?x10 |v11:0|)))
(let (($x245 (<= (+ (+ (+ (* ?x78 |v4:7|) (* ?x148 |v0:11|)) (* ?x70 |v0:11|)) ?x67) ?x182)))
(let (($x238 (<= (+ (+ (+ (* ?x189 |v9:2|) (* ?x52 |v4:7|)) (* ?x174 |v3:8|)) |v4:7|) ?x237)))
(let (($x299 (and (and (and $x238 $x245) (and (<= ?x255 ?x35) $x264)) (and (and (<= ?x271 ?x95) (<= ?x279 ?x14)) $x297))))
(let ((?x223 (+ (+ (+ (* 5 |v6:5|) (* ?x108 |v6:5|)) (* ?x174 |v10:1|)) (* ?x10 |v8:3|))))
(let (($x215 (<= (+ (+ (+ (* ?x101 |v5:6|) (* ?x104 |v5:6|)) (* ?x182 |v0:11|)) |v9:2|) ?x214)))
(let ((?x27 8))
(let ((?x204 (+ (+ (+ (* ?x59 |v0:11|) (* ?x59 |v3:8|)) (* 5 |v3:8|)) ?x203)))
(let (($x197 (<= (+ (+ (+ ?x190 (* ?x31 |v0:11|)) (* ?x75 |v6:5|)) (* ?x10 |v2:9|)) ?x43)))
(let ((?x184 (+ (+ (+ (* ?x104 |v8:3|) (* ?x174 |v5:6|)) (* ?x178 |v8:3|)) (* ?x182 |v3:8|))))
(let ((?x170 (+ (+ (+ (* ?x161 |v9:2|) (* ?x108 |v11:0|)) (* ?x104 |v9:2|)) (* ?x168 |v7:4|))))
(let ((?x98 5))
(let ((?x147 (+ (+ (+ (* ?x141 |v2:9|) (* ?x35 |v9:2|)) (* ?x49 |v7:4|)) (* ?x120 |v8:3|))))
(let (($x159 (or (<= ?x147 ?x148) (<= (+ (+ (+ ?x152 (* ?x35 |v6:5|)) (* ?x104 |v11:0|)) ?x156) ?x98))))
(let (($x228 (and (and $x159 (and (<= ?x170 ?x75) (<= ?x184 ?x101))) (and (and $x197 (<= ?x204 ?x27)) (and $x215 (<= ?x223 ?x224))))))
(let ((?x126 2))
(let (($x127 (<= (+ (+ (+ (* ?x117 |v2:9|) ?x121) (* ?x108 |v0:11|)) (* ?x104 |v3:8|)) ?x126)))
(let (($x136 (and $x127 (<= (+ (+ (+ (* ?x95 |v4:7|) ?x129) (* ?x78 |v9:2|)) ?x133) ?x98))))
(let ((?x111 (* ?x104 |v3:8|)))
(let (($x113 (<= (+ (+ (+ (* ?x101 |v2:9|) (* ?x104 |v11:0|)) (* ?x108 |v9:2|)) ?x111) ?x24)))
(let ((?x97 (+ (+ (+ (* ?x85 |v2:9|) (* (- 5) |v4:7|)) (* ?x59 |v10:1|)) (* ?x95 |v11:0|))))
(let (($x79 (<= (+ (+ (+ (* ?x39 |v5:6|) ?x67) (* ?x70 |v3:8|)) (* ?x75 |v0:11|)) ?x78)))
(let ((?x61 (+ (+ (+ (* ?x49 |v6:5|) (* ?x52 |v8:3|)) (* ?x49 |v7:4|)) (* ?x59 |v9:2|))))
(let (($x46 (<= (+ (+ (+ (* ?x31 |v10:1|) ?x36) (* ?x39 |v10:1|)) (* ?x43 |v10:1|)) ?x14)))
(let ((?x25 (* ?x24 |v8:3|)))
(let ((?x26 (+ (+ (+ (* ?x10 |v1:10|) (* ?x14 |v6:5|)) (* (- 10) |v3:8|)) ?x25)))
(let (($x138 (and (and (and (<= ?x26 ?x27) $x46) (and (<= ?x61 ?x39) $x79)) (and (and (<= ?x97 ?x98) $x113) $x136))))
(and (and (or $x138 $x228) (and $x299 $x363)) (and (and $x431 $x491) $x616)))))))))))))))))))))))))))))))))))))))))))))))))))))))))))))))))))))))))))))))))))))))))))))))))))))))))))))))))))))))))))))))))))))))))))))
)
)
)
)
)
)
)
)
)
)
)
)
(check-sat)
(exit)

